w = 30;

n = 29;

r2 = array1d(1..2, [6, 18]);

r3 = array1d(1..2, [2, 12]);

r4 = array1d(1..2, [10, 7]);

r5 = array1d(1..2, [4, 23]);

r6 = array1d(1..2, [4, 1]);

r7 = array1d(1..2, [7, 7]);

r8 = array1d(1..2, [11, 4]);

r9 = array1d(1..2, [6, 5]);

r10 = array1d(1..2, [2, 7]);

r11 = array1d(1..2, [6, 11]);

r12 = array1d(1..2, [10, 19]);

r13 = array1d(1..2, [11, 5]);

r14 = array1d(1..2, [4, 2]);

r15 = array1d(1..2, [7, 5]);

r16 = array1d(1..2, [4, 2]);

r17 = array1d(1..2, [7, 12]);

r18 = array1d(1..2, [7, 13]);

r19 = array1d(1..2, [3, 6]);

r20 = array1d(1..2, [6, 10]);

r21 = array1d(1..2, [9, 16]);

r22 = array1d(1..2, [1, 4]);

r23 = array1d(1..2, [4, 10]);

r24 = array1d(1..2, [6, 24]);

r25 = array1d(1..2, [9, 9]);

r26 = array1d(1..2, [2, 1]);

r27 = array1d(1..2, [8, 5]);

r28 = array1d(1..2, [3, 5]);

r29 = array1d(1..2, [7, 25]);

r30 = array1d(1..2, [5, 21]);

